============================[ Problem Statistics ]=============================|                                                                             ||  Number of variables:          4242                                         ||  Number of clauses:            9704                                         ||  Parse time:                   0.11 s                                       ||                                                                             |============================[ Search Statistics ]==============================| Conflicts |          ORIGINAL         |          LEARNT          | Progress ||           |    Vars  Clauses Literals |    Limit  Clauses Lit/Cl |          |==============================================================================================================================================================restarts              : 1conflicts             : 67             (396 /sec)decisions             : 152            (0.00 % random) (899 /sec)propagations          : 8170           (48343 /sec)conflict literals     : 3234           (95.93 % deleted)CPU time              : 0.169 sSATISFIABLE